# SCIP version 4.0.0

pricing/masterpricer/farkas/stabilization = FALSE

pricing/masterpricer/farkas/alpha = 0.001

pricing/masterpricer/farkas/maxobjbound = TRUE

pricing/masterpricer/farkas/useartificialvars = TRUE

sepa/basis/enable = FALSE

sepa/master/enable = FALSE
